300
300
240
240
239
239
239
238
238
238
238
237
235
233
228
228
224
224
224
223
221
220
219
219
219
219
218
218
217
216
215
213
213
213
213
213
211
211
211
211
209
209
208
208
207
207
205
205
205
205
204
204
204
203
203
203
202
201
201
200
200
198
197
194
194
193
193
193
192
192
192
191
190
189
189
189
188
188
188
188
187
186
185
185
185
184
183
183
182
181
181
179
179
179
178
178
177
175
174
174
173
172
172
171
170
168
168
167
167
166
166
166
165
165
164
162
162
162
161
160
160
159
158
157
154
154
153
153
153
153
152
152
152
151
150
150
150
150
149
148
147
146
145
145
144
144
143
142
142
140
139
139
138
136
136
136
136
136
135
135
135
135
134
133
132
132
131
130
129
129
128
128
128
124
124
120
120
120
118
117
117
116
116
115
113
113
110
108
108
108
107
107
106
106
106
106
105
104
103
103
103
102
101
100
99
99
99
99
97
97
96
96
96
95
94
94
93
93
93
93
92
92
92
91
90
90
90
89
89
88
87
87
84
83
82
82
81
80
79
78
76
74
72
72
71
69
69
68
67
67
66
65
65
64
64
64
64
63
63
63
62
60
60
60
59
58
58
58
58
58
57
56
56
54
52
52
52
52
52
51
51
51
51
51
48
47
45
44
43
43
37
37
37
36
35
34
34
33
31
31
30
30
